
Gurobi 12.0.1 (win64, C++) logging started Tue Apr 22 09:15:30 2025

Set parameter Username
Set parameter LicenseID to value 2618661
Academic license - for non-commercial use only - expires 2026-02-05
Set parameter Threads to value 8
Set parameter LazyConstraints to value 1
Set parameter PreCrush to value 1
Set parameter Seed to value 10
Set parameter Cuts to value -1
Set parameter TimeLimit to value 28800
Set parameter NumericFocus to value 0
Set parameter SolutionLimit to value 10000
Gurobi Optimizer version 12.0.1 build v12.0.1rc0 (win64 - Windows Server 2022.0 (20348.2))

CPU model: AMD EPYC 7513 32-Core Processor, instruction set [SSE2|AVX|AVX2]
Thread count: 18 physical cores, 18 logical processors, using up to 8 threads

Non-default parameters:
SolutionLimit  10000
TimeLimit  28800
PreCrush  1
Seed  10
Threads  8
LazyConstraints  1

Optimize a model with 352 rows, 676 columns and 1950 nonzeros
Model fingerprint: 0x155de137
Variable types: 0 continuous, 676 integer (676 binary)
Coefficient statistics:
  Matrix range     [1e+00, 1e+00]
  Objective range  [5e+00, 9e+01]
  Bounds range     [1e+00, 1e+00]
  RHS range        [1e+00, 8e+00]

User MIP start produced solution with objective 850.349 (0.00s)
Loaded user MIP start with objective 850.349

Presolve removed 26 rows and 76 columns
Presolve time: 0.01s
Presolved: 326 rows, 600 columns, 1725 nonzeros
Variable types: 0 continuous, 600 integer (600 binary)

Root relaxation: objective 4.668467e+02, 99 iterations, 0.00 seconds (0.00 work units)

    Nodes    |    Current Node    |     Objective Bounds      |     Work
 Expl Unexpl |  Obj  Depth IntInf | Incumbent    BestBd   Gap | It/Node Time

     0     0  466.84671    0    -  850.34917  466.84671  45.1%     -    0s
     0     0  492.83241    0   36  850.34917  492.83241  42.0%     -    0s
     0     0  501.66008    0    -  850.34917  501.66008  41.0%     -    0s
H    0     0                     847.5806756  539.51675  36.3%     -    0s
     0     0  539.51675    0    4  847.58068  539.51675  36.3%     -    0s
H    0     0                     770.9070563  562.63987  27.0%     -    0s
     0     0  562.63987    0   28  770.90706  562.63987  27.0%     -    0s
     0     0  577.04014    0   57  770.90706  577.04014  25.1%     -    0s
     0     0  581.13000    0   34  770.90706  581.13000  24.6%     -    0s
     0     0  587.63906    0   33  770.90706  587.63906  23.8%     -    0s
     0     0  590.03307    0   55  770.90706  590.03307  23.5%     -    0s
     0     0  593.66728    0   65  770.90706  593.66728  23.0%     -    0s
H    0     0                     735.9564766  593.66728  19.3%     -    0s
     0     2  593.66728    0   60  735.95648  593.66728  19.3%     -    0s
*   20    19               4     611.4913265  602.04377  1.55%   137    1s
   110    32  610.77118   16   85  611.49133  603.74313  1.27%  61.7    5s
*  117    32              12     607.6509456  603.74313  0.64%  60.4    5s

Cutting planes:
  MIR: 1
  Lazy constraints: 1568

Explored 175 nodes (10070 simplex iterations) in 6.28 seconds (0.83 work units)
Thread count was 8 (of 18 available processors)

Solution count 6: 607.651 611.491 735.956 ... 850.349

Optimal solution found (tolerance 1.00e-04)
Best objective 6.076509456345e+02, best bound 6.076509456345e+02, gap 0.0000%

User-callback calls 742, time in user-callback 5.34 sec
### START EXACT APPROACH ###
ProblemVariant: 6
### START PREPROCESSING ###
## Start infeasible path procedure ## 
Deleted arcs: 50
Infeasible tail paths: 0
Infeasible 2-node combinations: 25
Deleted arcs: 50
Infeasible tail paths: 0
Infeasible 2-node combinations: 25
## Start start solution procedure ##
Start solution with 8 Vehicles and total costs 850.349 in 0.0098913 s.
### END PREPROCESSING ###
Route 0 0-2-4-25-10-0 : weight util 0.979167 | volume util 0.547733 | 
Route 1 0-3-0 : weight util 0.854167 | volume util 0.046200 | 
Route 2 0-12-11-8-9-0 : weight util 1.000000 | volume util 0.538333 | 
Route 3 0-16-13-21-20-0 : weight util 1.000000 | volume util 0.679867 | 
Route 4 0-17-5-7-0 : weight util 1.000000 | volume util 0.458356 | 
Route 5 0-19-15-0 : weight util 0.937500 | volume util 0.334400 | 
Route 6 0-23-1-6-14-0 : weight util 0.916667 | volume util 0.583200 | 
Route 7 0-24-18-22-0 : weight util 0.958333 | volume util 0.426689 | 
